8 -24 -40 -39 -38 -37 -42 0
-30 36 12 15 -42 0
-24 11 46 -40 -39 -38 -37 -34 -42 0
11 -34 46 -18 -42 0
8 48 36 -40 -42 0
18 -40 24 -38 -37 -34 -42 0
40 -38 18 -42 0
11 46 18 -38 -37 -34 -42 0
-32 36 38 -43 -39 31 -42 0
-28 38 -24 46 18 -43 -37 -42 0
-42 0
38 46 18 19 24 42 0
11 -34 46 -18 42 0
38 42 46 18 24 42 0
38 42 46 18 -43 42 0
40 -38 18 42 0
36 -24 42 46 -43 -38 42 0
42 0
0
